--- Job or_report_1.6_mB_5e.gms Start 06/20/20 12:57:12 28.2.0 r750fa45 WEX-WEI x86 64bit/MS Windows
--- GAMS Parameters defined
    Input D:\Onedrive\Documents\GAMSStudio\or_report_1.6_model_B_multinode\5nodes\or_report_1.6_mB_5e.gms
    PageSize 0
    ScrDir D:\Onedrive\Documents\GAMSStudio\or_report_1.6_model_B_multinode\5nodes\225a\
    SysDir D:\GAMS\win64\28.2\
    LogOption 3
    ErrMsg 1
    ErrorLog 99
    IDE 1
    LstTitleLeftAligned 1
GAMS 28.2.0   Copyright (C) 1987-2019 GAMS Development. All rights reserved
Licensee: GAMS Development Corporation, USA              G871201/0000CA-ANY
          Free Demo, +1 202-342-0180, support@gams.com, www.gams.com DC0000
--- Starting compilation
--- or_report_1.6_mB_5e.gms(10) 3 Mb
--- . or_report.1.6_maxflow_mB_5e.csv(6) 3 Mb
--- or_report_1.6_mB_5e.gms(16) 3 Mb
--- . or_report.1.6_cost_mB_5e.csv(6) 3 Mb
--- or_report_1.6_mB_5e.gms(122) 3 Mb
--- Starting execution: elapsed 0:00:00.006
--- or_report_1.6_mB_5e.gms(61) 4 Mb
--- Generating LP model demo_1
--- or_report_1.6_mB_5e.gms(91) 4 Mb
---   30 rows  26 columns  66 non-zeroes
--- Executing CPLEX: elapsed 0:00:00.016

IBM ILOG CPLEX   28.2.0 r750fa45 Released Aug 19, 2019 WEI x86 64bit/MS Window
Cplex 12.9.0.0

Reading data...
Starting Cplex...
Space for names approximately 0.00 Mb
Use option 'names no' to turn use of names off
CPXPARAM_Advance                                 0
CPXPARAM_Threads                                 1
CPXPARAM_Parallel                                1
CPXPARAM_Simplex_Limits_Iterations               2000000000
CPXPARAM_TimeLimit                               1000
CPXPARAM_Tune_TimeLimit                          200
Tried aggregator 1 time.
LP Presolve eliminated 26 rows and 6 columns.
Reduced LP has 4 rows, 20 columns, and 32 nonzeros.
Presolve time = 0.00 sec. (0.02 ticks)
Initializing dual steep norms . . .

Iteration log . . .
Iteration:     1   Dual objective     =           555.340427
LP status(1): optimal
Cplex Time: 0.00sec (det. 0.04 ticks)

Optimal solution found.
Objective :         375.098843

--- Restarting execution
--- or_report_1.6_mB_5e.gms(91) 2 Mb
--- Reading solution for model demo_1
--- Executing after solve: elapsed 0:00:00.099
--- or_report_1.6_mB_5e.gms(100) 3 Mb
*** Status: Normal completion
--- Job or_report_1.6_mB_5e.gms Stop 06/20/20 12:57:12 elapsed 0:00:00.099
